100 8
500 818
617 695
669 704
514 166
614 355
820 867
718 339
428 831
903 878
727 512
602 632
784 774
966 688
66 903
796 772
662 242
770 928
532 846
411 251
659 59
273 343
797 602
627 595
822 703
834 660
733 558
642 798
738 733
574 612
521 749
799 934
700 936
919 88
784 725
534 621
941 770
630 243
798 533
513 234
790 566
397 830
552 891
682 637
664 536
429 140
610 47
961 552
310 347
611 545
235 851
802 592
651 225
898 642
709 623
729 750
684 886
147 776
577 650
481 400
354 181
236 812
726 214
852 140
415 832
571 127
708 217
922 525
761 898
611 881
658 781
892 592
868 579
410 923
672 683
125 800
435 937
743 549
563 662
973 820
867 632
335 366
460 857
983 655
346 82
633 659
372 395
439 271
430 491
917 801
933 579
712 875
455 279
67 804
574 534
586 596
498 980
236 762
403 390
430 356
245 853
